NAME : rat99.tsp
COMMENT : Optimal tour for rat99.tsp
TYPE : TOUR
DIMENSION : 99
Total Length: 1340.9961449240636
TOUR_SECTION
1
2
11
12
3
4
5
6
7
8
9
18
17
27
26
25
16
15
14
13
21
22
23
24
31
32
33
41
50
51
52
53
42
43
34
35
36
44
45
54
63
62
61
60
49
58
59
67
68
69
70
71
72
81
80
78
77
76
85
84
83
95
86
87
88
79
89
90
99
98
97
96
94
93
92
91
82
73
74
75
66
65
64
56
57
55
46
47
48
40
39
38
29
37
28
30
19
20
10
-1
EOF
